26336
24,121,331,463,481,496,507,568,599,616,694,791,796,830,1117,1143,1209,1355,1361,1374,1383,1400,1435,1457,1523,1576,1740,1763,1815,1829,1863,1904,2025,2184,2298,2311,2338,2437,2450,2472,2478,2504,2617,2685,2720,2744,2792,2832,2892,2896,2962,2966,3032,3215,3216,3364,3382,3395,3479,3562,3599,3717,3850,3911,3990,4026,4044,4131,4160,4205,4259,4334,4487,4512,4644,4677,4765,4818,4874,4975,4995
